c description: Random 3-CNF over 10 variables and 15 clauses
c generator: CNFgen (0.9.3-1)
c copyright: (C) 2012-2022 Massimo Lauria <massimo.lauria@uniroma1.it>
c url: https://massimolauria.net/cnfgen
c command line: cnfgen randkcnf 3 10 15
c
p cnf 10 15
2 -3 8 0
-1 4 -10 0
6 -8 10 0
-1 4 9 0
4 7 9 0
-4 -5 8 0
-4 7 9 0
-1 8 9 0
1 -3 7 0
-2 -6 -10 0
3 7 -9 0
-1 -3 -4 0
7 -8 -9 0
7 8 -9 0
2 -4 -5 0
